param n := 120;
param c := 3000
param : V : p w :=
   0	  11	 432
   1	  89	 265
   2	  51	 303
   3	  12	 365
   4	  75	 282
   5	  10	 353
   6	  83	 448
   7	   6	 260
   8	  25	 292
   9	  45	 496
  10	  45	 250
  11	  17	 254
  12	  31	 363
  13	  95	 265
  14	  25	 372
  15	 100	 372
  16	   6	 298
  17	  51	 330
  18	  42	 491
  19	  60	 253
  20	  37	 256
  21	  56	 429
  22	  18	 260
  23	  26	 311
  24	  92	 392
  25	  57	 268
  26	  38	 340
  27	   9	 433
  28	  48	 251
  29	  44	 316
  30	  50	 406
  31	  81	 259
  32	  26	 335
  33	  79	 365
  34	  83	 252
  35	  74	 383
  36	  33	 393
  37	  67	 271
  38	   5	 336
  39	  91	 380
  40	  73	 303
  41	  10	 317
  42	  45	 381
  43	  60	 295
  44	   3	 324
  45	  96	 424
  46	  88	 268
  47	  88	 308
  48	  41	 498
  49	  94	 250
  50	  47	 252
  51	  72	 414
  52	  35	 255
  53	  93	 331
  54	  13	 421
  55	  89	 268
  56	  35	 311
  57	  72	 491
  58	  91	 250
  59	  14	 259
  60	 100	 493
  61	  17	 250
  62	  75	 257
  63	  16	 368
  64	  99	 265
  65	  69	 367
  66	  13	 408
  67	   3	 289
  68	  92	 303
  69	  13	 444
  70	  74	 262
  71	  22	 294
  72	  27	 403
  73	  89	 259
  74	  51	 338
  75	  62	 485
  76	   6	 253
  77	  44	 262
  78	  21	 465
  79	  27	 260
  80	  39	 275
  81	  20	 421
  82	  66	 254
  83	 100	 325
  84	  11	 351
  85	  56	 296
  86	  72	 353
  87	  36	 396
  88	   5	 276
  89	  19	 328
  90	  85	 389
  91	  11	 295
  92	  43	 316
  93	  65	 483
  94	  71	 251
  95	  44	 266
  96	  38	 398
  97	  39	 289
  98	  34	 313
  99	  57	 363
 100	  75	 308
 101	  19	 329
 102	  85	 399
 103	  48	 279
 104	  26	 322
 105	  84	 389
 106	  30	 283
 107	  90	 328
 108	  41	 402
 109	  30	 251
 110	  52	 347
 111	   1	 357
 112	   9	 280
 113	   4	 363
 114	  80	 427
 115	  83	 277
 116	  26	 296
 117	  54	 375
 118	  83	 259
 119	  77	 366
;

set E :=
   0	   6
   0	   9
   0	  17
   0	  20
   0	  30
   0	  46
   0	  69
   0	  77
   0	  84
   1	   3
   1	  14
   1	  21
   1	  58
   1	  75
   1	  80
   1	  81
   1	  90
   1	  93
   1	  99
   1	 105
   2	   6
   2	  38
   2	  58
   2	  65
   2	  67
   2	  77
   2	  81
   2	  98
   2	 101
   2	 113
   3	   7
   3	  12
   3	  19
   3	  20
   3	  25
   3	  27
   3	  30
   3	  33
   3	  35
   3	  40
   3	  68
   3	  78
   3	  81
   3	  82
   3	  87
   3	  93
   3	 112
   4	  18
   4	  25
   4	  28
   4	  40
   4	  43
   4	  44
   4	  56
   4	  57
   4	  78
   4	  82
   4	  88
   4	  96
   4	 103
   4	 108
   4	 111
   4	 116
   5	   7
   5	   8
   5	  11
   5	  19
   5	  20
   5	  29
   5	  37
   5	  39
   5	  47
   5	  63
   5	  70
   5	  73
   5	  75
   5	  80
   5	  95
   5	  99
   5	 105
   5	 109
   5	 117
   6	   8
   6	  12
   6	  15
   6	  16
   6	  33
   6	  58
   6	  70
   6	  79
   6	  88
   6	  89
   6	 100
   7	  14
   7	  28
   7	  30
   7	  42
   7	  58
   7	  68
   7	  73
   7	  80
   7	  85
   7	  86
   7	  91
   7	 110
   7	 116
   8	  14
   8	  19
   8	  23
   8	  27
   8	  32
   8	  44
   8	  47
   8	  62
   8	  65
   8	  68
   8	  72
   8	  84
   8	  91
   8	 104
   8	 106
   9	  20
   9	  25
   9	  30
   9	  47
   9	  63
   9	  67
   9	  68
   9	  70
   9	  75
   9	  81
   9	  89
   9	  96
  10	  15
  10	  23
  10	  28
  10	  31
  10	  33
  10	  47
  10	  52
  10	  57
  10	  62
  10	  69
  10	  83
  10	  90
  10	  95
  10	  98
  10	 115
  11	  17
  11	  20
  11	  59
  11	  73
  11	  82
  11	  87
  11	  91
  11	 109
  12	  17
  12	  23
  12	  30
  12	  31
  12	  53
  12	  75
  12	  81
  12	  91
  12	 103
  12	 106
  12	 109
  12	 114
  13	  24
  13	  33
  13	  35
  13	  56
  13	  65
  13	  86
  13	 100
  13	 107
  13	 112
  14	  50
  14	  78
  14	  95
  14	  97
  14	 100
  14	 102
  14	 112
  14	 114
  15	  24
  15	  26
  15	  32
  15	  34
  15	  37
  15	  38
  15	  40
  15	  84
  15	  90
  15	  99
  15	 106
  16	  51
  16	  53
  16	  57
  16	  87
  16	  98
  16	 103
  16	 115
  16	 118
  17	  66
  17	  70
  17	  82
  17	  89
  17	 119
  18	  26
  18	  31
  18	  53
  18	  64
  18	  72
  19	  27
  19	  32
  19	  33
  19	  57
  19	  66
  19	  73
  19	  74
  19	  79
  19	  84
  19	  92
  19	  96
  19	 115
  20	  28
  20	  31
  20	  35
  20	  53
  20	  56
  20	  57
  20	  61
  20	  62
  20	  64
  20	  69
  20	  71
  20	  72
  20	  76
  20	  78
  20	  94
  20	  97
  21	  22
  21	  33
  21	  78
  21	  81
  21	 105
  21	 109
  21	 112
  21	 117
  22	  26
  22	  39
  22	  40
  22	  52
  22	  54
  22	  67
  22	  80
  22	  83
  22	  89
  22	  93
  22	 107
  22	 119
  23	  29
  23	  43
  23	  49
  23	  52
  23	  58
  23	  59
  23	  83
  23	 105
  24	  28
  24	  33
  24	  36
  24	  37
  24	  48
  24	  49
  24	  61
  24	  75
  24	  86
  24	  89
  24	  95
  24	  98
  24	  99
  24	 100
  25	  29
  25	  33
  25	  36
  25	  49
  25	  59
  25	  68
  25	  72
  25	  80
  25	  84
  25	 100
  25	 102
  25	 104
  25	 108
  25	 111
  25	 115
  26	  42
  26	  48
  26	  80
  26	  94
  26	  98
  27	  35
  27	  49
  27	  65
  27	  68
  27	  77
  27	  87
  27	  94
  27	  95
  28	  47
  28	  57
  28	  70
  28	  71
  28	  78
  28	 103
  28	 104
  29	  32
  29	  37
  29	  40
  29	  43
  29	  71
  29	  79
  29	  94
  29	 104
  30	  66
  30	  78
  30	  79
  31	  32
  31	  36
  31	  46
  31	  48
  31	  61
  31	  66
  31	  73
  31	  98
  31	  99
  31	 101
  31	 106
  31	 117
  32	  37
  32	  54
  32	  64
  32	  65
  32	  68
  32	  96
  33	  59
  33	  75
  33	 109
  33	 113
  33	 116
  34	  47
  34	  56
  34	  71
  34	  78
  34	  79
  34	  92
  34	 100
  34	 117
  35	  36
  35	  49
  35	  50
  35	  54
  35	  55
  35	  60
  35	  81
  35	  92
  35	  97
  35	 113
  35	 116
  36	  47
  36	  54
  36	  56
  36	  63
  36	  67
  36	  76
  36	  79
  36	  84
  36	  93
  36	  95
  36	 103
  37	  44
  37	  51
  37	  65
  37	  74
  37	  84
  37	 111
  37	 112
  37	 113
  37	 114
  37	 115
  38	  64
  38	  74
  38	  98
  39	  44
  39	  53
  39	  56
  39	  57
  39	  67
  39	  74
  39	  75
  39	  76
  39	  81
  39	 101
  39	 112
  40	  50
  40	  59
  40	  63
  40	  81
  40	  98
  40	 104
  40	 106
  40	 108
  41	  43
  41	  46
  41	  48
  41	  66
  41	  69
  41	  77
  41	  97
  42	  51
  42	  59
  42	  69
  42	  94
  43	  44
  43	  45
  43	  49
  43	  53
  43	  58
  43	  59
  43	  63
  43	  64
  43	  72
  43	  73
  43	  93
  44	  45
  44	  57
  44	  58
  44	  65
  44	  74
  44	  86
  44	  87
  44	 105
  45	  49
  45	  51
  45	  54
  45	  55
  45	  56
  45	  72
  45	  95
  45	 110
  46	  52
  46	  69
  46	  75
  46	  89
  46	 109
  47	  70
  47	  93
  47	  95
  47	 106
  47	 108
  48	  84
  48	  86
  48	  95
  48	 103
  48	 107
  48	 114
  48	 116
  49	  50
  49	  62
  49	  71
  49	  75
  49	  84
  49	  98
  49	 115
  49	 117
  50	  54
  50	  61
  50	  67
  50	  89
  50	  90
  50	  96
  50	 101
  50	 115
  50	 117
  51	  68
  51	  69
  51	  79
  51	  81
  51	  92
  51	  98
  51	 103
  51	 116
  51	 117
  52	  59
  52	  73
  52	  76
  52	  84
  52	  85
  52	 106
  52	 108
  52	 113
  53	  57
  53	  59
  54	  56
  54	  59
  54	  65
  54	  77
  54	  94
  54	  96
  54	 100
  54	 106
  55	  72
  55	  74
  55	  79
  55	  86
  55	  96
  55	  98
  55	 107
  55	 113
  56	  58
  56	  73
  56	  78
  56	  79
  56	  87
  56	  89
  56	  98
  56	 103
  56	 117
  57	  64
  57	  65
  57	 104
  57	 108
  58	  67
  58	  73
  58	 110
  58	 111
  58	 115
  58	 117
  59	  66
  59	  97
  59	  98
  59	 117
  60	 104
  60	 110
  60	 112
  61	  68
  61	  81
  61	  82
  61	  84
  61	  88
  61	  98
  61	  99
  61	 101
  61	 112
  62	  82
  62	  92
  62	 119
  63	  83
  63	 108
  64	  68
  64	  84
  64	  97
  64	 110
  65	  72
  65	  82
  65	  98
  65	 102
  65	 111
  66	  72
  66	  73
  66	  76
  66	 104
  66	 116
  66	 119
  67	  76
  67	  94
  67	  95
  67	  97
  67	 113
  68	  70
  68	  82
  68	  96
  69	  87
  69	 100
  69	 103
  70	  75
  70	  98
  70	 105
  70	 118
  71	  77
  71	  83
  71	  90
  71	  93
  71	  95
  71	 112
  71	 114
  71	 117
  72	  89
  72	  91
  72	 105
  72	 110
  73	  98
  73	 111
  74	  81
  74	  83
  74	  86
  74	  90
  74	 109
  75	 101
  75	 110
  75	 116
  75	 117
  76	  81
  76	  87
  76	  96
  76	 106
  76	 109
  76	 114
  76	 116
  77	  78
  77	  79
  77	  80
  77	  81
  77	  92
  77	 107
  78	 100
  78	 110
  78	 115
  79	  80
  79	  91
  79	  98
  79	 105
  80	  90
  80	  95
  80	 101
  80	 112
  81	  86
  81	  89
  81	 104
  81	 108
  81	 109
  81	 116
  81	 117
  82	  87
  82	  88
  82	 115
  83	  87
  83	  88
  83	  90
  84	 101
  84	 105
  84	 109
  85	  86
  85	  91
  85	 102
  85	 104
  85	 110
  86	  90
  86	  95
  86	 109
  86	 116
  88	 111
  88	 113
  88	 117
  89	  90
  89	  94
  90	  94
  90	 118
  91	  94
  91	 106
  91	 108
  91	 113
  92	  98
  92	 100
  92	 102
  92	 105
  92	 113
  93	  95
  93	  98
  93	 110
  93	 116
  94	  96
  94	  99
  94	 103
  95	  97
  95	 101
  95	 107
  95	 118
  96	 101
  96	 104
  96	 107
  97	  98
  97	 103
  97	 111
  97	 115
  99	 111
  99	 114
 100	 102
 100	 104
 100	 108
 100	 110
 100	 119
 101	 107
 101	 108
 101	 115
 103	 104
 103	 112
 103	 115
 104	 108
 104	 109
 106	 107
 107	 113
 107	 118
 110	 111
 113	 115
 116	 117
 117	 118
;
